1 51 2
-9 -643 -465 -90 -511 -785 -509 -922 -947 -789 -50 -807 -946 -382 -934 -21 -604 -480 -139 -851 -823 -760 -381 -59 -332 -293 -607 -618 -392 -387 -404 -472 -706 -429 -801 -254 -755 -772 -137 -375 -529 -687 -560 -302 -951 -860 -476 -663 -296 -990 0 
-833 -961 -91 -869 -533 -521 -369 -439 -516 -105 -283 -186 -506 -243 -585 -851 -979 -2 -986 -600 -741 -130 -681 -660 -868 -747 -256 -635 -743 -424 -720 -467 -443 -450 -68 -689 -532 -168 -891 -916 -302 -929 -960 -401 -620 -675 -224 -827 -384 -517 0 
835 83 561 13 105 178 968 380 29 378 737 266 60 463 808 989 800 148 425 299 848 402 629 128 393 834 278 810 706 213 127 393 237 325 646 53 949 418 948 303 660 687 180 871 376 808 257 847 211 1000 1 
12031 
